; QF_BV benchmark: puzzle_04
(set-logic QF_BV)
(declare-fun v0 () (_ BitVec 8))
(declare-fun v1 () (_ BitVec 8))
(declare-fun v2 () (_ BitVec 8))
(declare-fun v3 () (_ BitVec 8))
(assert (= (bvand v0 v2) #x41))
(assert (= (bvand v3 v2) #x87))
(assert (= (bvand v3 v0) #x9f))
(assert (= (bvor v3 v2) #xe0))
(assert (= (bvand v3 v0) #x73))
(assert (= (bvadd v0 v1) #x75))
(check-sat)
(exit)
